16357 8355 1 4 7 8 9 10 11 12 14 15 16 21 22 24 25 26 27 29 33 34 35 36 38 42 46 49 50 51 57 58 60 61 64 65 66 68 69 73 74 78 84 86 88 89 93 94 96 100 107 110 114 118 119 120 123 124 126 127 131 132 133 134 136 138 142 143 144 145 146 148 149 150 153 154 155 156 158 159 160 163 167 169 172 175 176 179 190 191 192 194 195 197 200 201 202 203 204 205 206 207 210 213 217 220 221 223 227 229 230 232 235 236 238 241 242 247 248 249 251 252 253 255 259 260 261 263 264 267 269 272 273 275 277 279 284 286 287 289 290 292 295 296 297 299 302 305 307 308 309 311 319 323 324 325 326 327 331 332 333 334 335 338 341 342 344 345 347 348 349 353 358 359 360 363 367 368 369 370 372 373 378 380 386 388 391 393 395 396 400 401 402 403 404 405 408 409 410 413 417 422 424 425 426 427 428 429 431 432 434 437 440 441 444 445 447 450 451 453 459 462 464 465 466 468 470 471 472 473 475 476 477 478 479 481 483 484 486 488 489 490 495 496 497 